50
180
148
155
238
170
247
220
177
206
230
169
165
154
175
230
215
191
247
197
213
189
186
207
152
181
147
166
224
194
183
222
220
180
161
237
222
247
184
155
175
184
179
191
164
145
243
151
152
219
175
